c Sudoku solution
p cnf 729 0
122 0
185 0
276 0
293 0
326 0
341 0
377 0
437 0
488 0
499 0
529 0
545 0
618 0
657 0
673 0
695 0
749 0
669 0
764 0
787 0
597 0
821 0
624 0
834 0
915 0
425 0
932 0
819 0
927 0
723 0
716 0
738 0
228 0
948 0
963 0
883 0
989 0
179 0
878 0
775 0
259 0
339 0
235 0
561 0
558 0
466 0
642 0
156 0
846 0
951 0
752 0
855 0
867 0
791 0
974 0
892 0
996 0
365 0
262 0
168 0
398 0
382 0
471 0
686 0
631 0
536 0
412 0
513 0
314 0
133 0
353 0
443 0
454 0
572 0
584 0
281 0
194 0
111 0
217 0
147 0
244 0
